certificates/rado_a9_c34_N18.drat
-5 -4 0
d -5 -15 -4 0
-4 -18 0
d -4 -16 -18 0
-18 0
2 0
-4 0
6 0
16 0
-5 0
15 0
7 0
3 0
-8 0
-14 0
-10 0
-9 0
-13 0
0
